db/data/11568152142376629918118345438741515268.z3.out
sat
-------------------
1944.809986755
